benchmark/results/graph__15-1000-0.10-03_3/graph__15-1000-0.10-03_3_Quinton_Benders_primal_sub.lp
\ This file has been generated by DOcplex
\ ENCODING=ISO-8859-1
\Problem name: Quinton Benders_primal_sub

Maximize
 obj: tau
Subject To
 c1: tau <= 0.001652892562
 c2: y_a0_proc_0 + y_a0_proc_1 + y_a0_proc_2 - tau = 0
 c3: y_a0_proc_0 <= 0
 c4: y_a0_proc_1 <= 0
 c5: y_a0_proc_2 <= 1
 c6: tau <= 0.001026694045
 c7: y_a1_proc_0 + y_a1_proc_1 + y_a1_proc_2 - tau = 0
 c8: y_a1_proc_0 <= 1
 c9: y_a1_proc_1 <= 0
 c10: y_a1_proc_2 <= 0
 c11: tau <= 0.000803858521
 c12: y_a2_proc_1 + y_a2_proc_2 - tau = 0
 c13: y_a2_proc_1 <= 1
 c14: y_a2_proc_2 <= 0
 c15: tau <= 0.001015228426
 c16: y_a3_proc_0 + y_a3_proc_2 - tau = 0
 c17: y_a3_proc_0 <= 1
 c18: y_a3_proc_2 <= 0
 c19: tau <= 0.001066098081
 c20: y_a4_proc_0 + y_a4_proc_1 + y_a4_proc_2 - tau = 0
 c21: y_a4_proc_0 <= 1
 c22: y_a4_proc_1 <= 0
 c23: y_a4_proc_2 <= 0
 c24: tau <= 0.003154574132
 c25: y_a5_proc_0 + y_a5_proc_2 - tau = 0
 c26: y_a5_proc_0 <= 1
 c27: y_a5_proc_2 <= 0
 c28: tau <= 0.000886524823
 c29: y_a6_proc_0 + y_a6_proc_1 + y_a6_proc_2 - tau = 0
 c30: y_a6_proc_0 <= 0
 c31: y_a6_proc_1 <= 0
 c32: y_a6_proc_2 <= 1
 c33: tau <= 0.001555209953
 c34: y_a7_proc_1 + y_a7_proc_2 - tau = 0
 c35: y_a7_proc_1 <= 0
 c36: y_a7_proc_2 <= 1
 c37: tau <= 0.001626016260
 c38: y_a8_proc_0 + y_a8_proc_1 - tau = 0
 c39: y_a8_proc_0 <= 1
 c40: y_a8_proc_1 <= 0
 c41: tau <= 0.001364256480
 c42: y_a9_proc_1 + y_a9_proc_2 - tau = 0
 c43: y_a9_proc_1 <= 0
 c44: y_a9_proc_2 <= 1
 c45: tau <= 0.001620745543
 c46: y_a10_proc_0 - tau = 0
 c47: y_a10_proc_0 <= 1
 c48: tau <= 0.001036269430
 c49: y_a11_proc_1 + y_a11_proc_2 - tau = 0
 c50: y_a11_proc_1 <= 1
 c51: y_a11_proc_2 <= 0
 c52: tau <= 0.001170960187
 c53: y_a12_proc_0 + y_a12_proc_1 + y_a12_proc_2 - tau = 0
 c54: y_a12_proc_0 <= 0
 c55: y_a12_proc_1 <= 0
 c56: y_a12_proc_2 <= 1
 c57: tau <= 0.001086956522
 c58: y_a13_proc_0 + y_a13_proc_1 + y_a13_proc_2 - tau = 0
 c59: y_a13_proc_0 <= 0
 c60: y_a13_proc_1 <= 0
 c61: y_a13_proc_2 <= 1
 c62: tau <= 0.000865051903
 c63: y_a14_proc_0 + y_a14_proc_1 + y_a14_proc_2 - tau = 0
 c64: y_a14_proc_0 <= 1
 c65: y_a14_proc_1 <= 0
 c66: y_a14_proc_2 <= 0
 c67: u_a0 - u_a1 - 974 y_a1_proc_0 - 1234 y_a1_proc_1 - 1278 y_a1_proc_2 >= 0
 c68: u_a2 - u_a0 - 1021 y_a0_proc_0 - 966 y_a0_proc_1 - 605 y_a0_proc_2 >= 0
 c69: u_a3 - u_a2 - 1244 y_a2_proc_1 - 1040 y_a2_proc_2 >= 0
 c70: u_a1 - u_a4 - 938 y_a4_proc_0 - 1052 y_a4_proc_1 - 1073 y_a4_proc_2 >= 0
 c71: u_a5 - u_a2 - 1244 y_a2_proc_1 - 1040 y_a2_proc_2 >= 0
 c72: u_a4 - u_a6 - 1124 y_a6_proc_0 - 1079 y_a6_proc_1 - 1128 y_a6_proc_2 >= 0
 c73: u_a7 - u_a5 - 317 y_a5_proc_0 - 599 y_a5_proc_2 >= 0
 c74: u_a0 - u_a8 - 615 y_a8_proc_0 - 1291 y_a8_proc_1 >= 0
 c75: u_a9 - u_a3 - 985 y_a3_proc_0 - 1039 y_a3_proc_2 >= 0
 c76: u_a9 - u_a10 - 617 y_a10_proc_0 >= 0
 c77: u_a7 - u_a11 - 965 y_a11_proc_1 - 1023 y_a11_proc_2 >= 0
 c78: u_a12 - u_a7 - 1018 y_a7_proc_1 - 643 y_a7_proc_2 >= 0
 c79: u_a13 - u_a1 - 974 y_a1_proc_0 - 1234 y_a1_proc_1 - 1278 y_a1_proc_2 >= 0
 c80: u_a10 - u_a14 - 1156 y_a14_proc_0 - 469 y_a14_proc_1 - 515 y_a14_proc_2
       >= -1
 c81: u_a14 - u_a13 - 972 y_a13_proc_0 - 696 y_a13_proc_1 - 920 y_a13_proc_2
       >= 0
 c82: u_a11 - u_a10 - 617 y_a10_proc_0 >= 0
 c83: u_a10 - u_a3 - 985 y_a3_proc_0 - 1039 y_a3_proc_2 >= 0
 c84: u_a7 - u_a12 - 1101 y_a12_proc_0 - 411 y_a12_proc_1 - 854 y_a12_proc_2
       >= -1
 c85: u_a14 - u_a10 - 617 y_a10_proc_0 >= 0
 c86: u_a14 - u_a9 - 713 y_a9_proc_1 - 733 y_a9_proc_2 >= 0
 c87: u_a8 - u_a13 - 972 y_a13_proc_0 - 696 y_a13_proc_1 - 920 y_a13_proc_2 >= 
      0
 c88: u_a1 - u_a6 - 1124 y_a6_proc_0 - 1079 y_a6_proc_1 - 1128 y_a6_proc_2 >= 0
 c89: u_a1 - u_a0 - 605 y_a0_proc_2 >= -1000001291
 c90: u_a1 - u_a0 - 1021 y_a0_proc_0 >= -1000001291
 c91: u_a1 - u_a0 - 966 y_a0_proc_1 >= -1000002582
 c92: u_a0 - u_a1 - 1278 y_a1_proc_2 >= 999998708
 c93: u_a0 - u_a1 - 974 y_a1_proc_0 >= 999998708
 c94: u_a0 - u_a1 - 1234 y_a1_proc_1 >= 999997417
 c95: u_a2 - u_a0 - 605 y_a0_proc_2 >= -2582
 c96: u_a2 - u_a0 - 966 y_a0_proc_1 >= -2582
 c97: u_a0 - u_a2 - 1040 y_a2_proc_2 >= -1
 c98: u_a0 - u_a2 - 1244 y_a2_proc_1 >= -1
 c99: u_a3 - u_a0 - 605 y_a0_proc_2 >= -2582
 c100: u_a3 - u_a0 - 1021 y_a0_proc_0 >= -2582
 c101: u_a0 - u_a3 - 1039 y_a3_proc_2 >= -1
 c102: u_a0 - u_a3 - 985 y_a3_proc_0 >= -1
 c103: u_a4 - u_a0 - 605 y_a0_proc_2 >= -1000001291
 c104: u_a4 - u_a0 - 1021 y_a0_proc_0 >= -1000001291
 c105: u_a4 - u_a0 - 966 y_a0_proc_1 >= -1000002582
 c106: u_a0 - u_a4 - 1073 y_a4_proc_2 >= 999998708
 c107: u_a0 - u_a4 - 938 y_a4_proc_0 >= 999998708
 c108: u_a0 - u_a4 - 1052 y_a4_proc_1 >= 999997417
 c109: u_a5 - u_a0 - 605 y_a0_proc_2 >= -2582
 c110: u_a5 - u_a0 - 1021 y_a0_proc_0 >= -2582
 c111: u_a0 - u_a5 - 599 y_a5_proc_2 >= -1
 c112: u_a0 - u_a5 - 317 y_a5_proc_0 >= -1
 c113: u_a6 - u_a0 - 605 y_a0_proc_2 >= -999999999
 c114: u_a6 - u_a0 - 1021 y_a0_proc_0 >= -1000002581
 c115: u_a6 - u_a0 - 966 y_a0_proc_1 >= -1000002581
 c116: u_a0 - u_a6 - 1128 y_a6_proc_2 >= 999999998
 c117: u_a0 - u_a6 - 1124 y_a6_proc_0 >= 999997416
 c118: u_a0 - u_a6 - 1079 y_a6_proc_1 >= 999997416
 c119: u_a7 - u_a0 - 605 y_a0_proc_2 >= 0
 c120: u_a7 - u_a0 - 966 y_a0_proc_1 >= -2582
 c121: u_a0 - u_a7 - 643 y_a7_proc_2 >= -1
 c122: u_a0 - u_a7 - 1018 y_a7_proc_1 >= -2583
 c123: u_a8 - u_a0 - 1021 y_a0_proc_0 >= -1000001291
 c124: u_a8 - u_a0 - 966 y_a0_proc_1 >= -1000002582
 c125: u_a0 - u_a8 - 615 y_a8_proc_0 >= 999998708
 c126: u_a0 - u_a8 - 1291 y_a8_proc_1 >= 999997417
 c127: u_a9 - u_a0 - 605 y_a0_proc_2 >= 0
 c128: u_a9 - u_a0 - 966 y_a0_proc_1 >= -2582
 c129: u_a0 - u_a9 - 733 y_a9_proc_2 >= -1
 c130: u_a0 - u_a9 - 713 y_a9_proc_1 >= -2583
 c131: u_a10 - u_a0 - 1021 y_a0_proc_0 >= -2582
 c132: u_a0 - u_a10 - 617 y_a10_proc_0 >= -1
 c133: u_a11 - u_a0 - 605 y_a0_proc_2 >= -2582
 c134: u_a11 - u_a0 - 966 y_a0_proc_1 >= -2582
 c135: u_a0 - u_a11 - 1023 y_a11_proc_2 >= -1
 c136: u_a0 - u_a11 - 965 y_a11_proc_1 >= -1
 c137: u_a12 - u_a0 - 605 y_a0_proc_2 >= 0
 c138: u_a12 - u_a0 - 1021 y_a0_proc_0 >= -2582
 c139: u_a12 - u_a0 - 966 y_a0_proc_1 >= -2582
 c140: u_a0 - u_a12 - 854 y_a12_proc_2 >= -1
 c141: u_a0 - u_a12 - 1101 y_a12_proc_0 >= -2583
 c142: u_a0 - u_a12 - 411 y_a12_proc_1 >= -2583
 c143: u_a13 - u_a0 - 605 y_a0_proc_2 >= -999999999
 c144: u_a13 - u_a0 - 1021 y_a0_proc_0 >= -1000002581
 c145: u_a13 - u_a0 - 966 y_a0_proc_1 >= -1000002581
 c146: u_a0 - u_a13 - 920 y_a13_proc_2 >= 999999998
 c147: u_a0 - u_a13 - 972 y_a13_proc_0 >= 999997416
 c148: u_a0 - u_a13 - 696 y_a13_proc_1 >= 999997416
 c149: u_a14 - u_a0 - 605 y_a0_proc_2 >= -2582
 c150: u_a14 - u_a0 - 1021 y_a0_proc_0 >= -2582
 c151: u_a14 - u_a0 - 966 y_a0_proc_1 >= -3873
 c152: u_a0 - u_a14 - 515 y_a14_proc_2 >= -1
 c153: u_a0 - u_a14 - 1156 y_a14_proc_0 >= -1
 c154: u_a0 - u_a14 - 469 y_a14_proc_1 >= -1292
 c155: u_a2 - u_a1 - 1278 y_a1_proc_2 >= 999997417
 c156: u_a2 - u_a1 - 1234 y_a1_proc_1 >= 999998708
 c157: u_a1 - u_a2 - 1040 y_a2_proc_2 >= -1000002582
 c158: u_a1 - u_a2 - 1244 y_a2_proc_1 >= -1000001291
 c159: u_a3 - u_a1 - 1278 y_a1_proc_2 >= 999997416
 c160: u_a3 - u_a1 - 974 y_a1_proc_0 >= 999999998
 c161: u_a1 - u_a3 - 1039 y_a3_proc_2 >= -1000002581
 c162: u_a1 - u_a3 - 985 y_a3_proc_0 >= -999999999
 c163: u_a4 - u_a1 - 1278 y_a1_proc_2 >= -2583
 c164: u_a4 - u_a1 - 974 y_a1_proc_0 >= -1
 c165: u_a4 - u_a1 - 1234 y_a1_proc_1 >= -2583
 c166: u_a1 - u_a4 - 1073 y_a4_proc_2 >= -2582
 c167: u_a1 - u_a4 - 938 y_a4_proc_0 >= 0
 c168: u_a1 - u_a4 - 1052 y_a4_proc_1 >= -2582
 c169: u_a5 - u_a1 - 1278 y_a1_proc_2 >= 999997417
 c170: u_a5 - u_a1 - 974 y_a1_proc_0 >= 999999999
 c171: u_a1 - u_a5 - 599 y_a5_proc_2 >= -1000002582
 c172: u_a1 - u_a5 - 317 y_a5_proc_0 >= -1000000000
 c173: u_a6 - u_a1 - 1278 y_a1_proc_2 >= -2583
 c174: u_a6 - u_a1 - 974 y_a1_proc_0 >= -2583
 c175: u_a6 - u_a1 - 1234 y_a1_proc_1 >= -3874
 c176: u_a1 - u_a6 - 1128 y_a6_proc_2 >= 0
 c177: u_a1 - u_a6 - 1124 y_a6_proc_0 >= 0
 c178: u_a1 - u_a6 - 1079 y_a6_proc_1 >= -1291
 c179: u_a7 - u_a1 - 1278 y_a1_proc_2 >= 999998708
 c180: u_a7 - u_a1 - 1234 y_a1_proc_1 >= 999997417
 c181: u_a1 - u_a7 - 643 y_a7_proc_2 >= -1000001291
 c182: u_a1 - u_a7 - 1018 y_a7_proc_1 >= -1000002582
 c183: u_a8 - u_a1 - 974 y_a1_proc_0 >= 0
 c184: u_a8 - u_a1 - 1234 y_a1_proc_1 >= -2582
 c185: u_a1 - u_a8 - 615 y_a8_proc_0 >= -1
 c186: u_a1 - u_a8 - 1291 y_a8_proc_1 >= -2583
 c187: u_a9 - u_a1 - 1278 y_a1_proc_2 >= 999998708
 c188: u_a9 - u_a1 - 1234 y_a1_proc_1 >= 999997417
 c189: u_a1 - u_a9 - 733 y_a9_proc_2 >= -1000001291
 c190: u_a1 - u_a9 - 713 y_a9_proc_1 >= -1000002582
 c191: u_a10 - u_a1 - 974 y_a1_proc_0 >= 999999999
 c192: u_a1 - u_a10 - 617 y_a10_proc_0 >= -1000000000
 c193: u_a11 - u_a1 - 1278 y_a1_proc_2 >= 999997417
 c194: u_a11 - u_a1 - 1234 y_a1_proc_1 >= 999998708
 c195: u_a1 - u_a11 - 1023 y_a11_proc_2 >= -1000002582
 c196: u_a1 - u_a11 - 965 y_a11_proc_1 >= -1000001291
 c197: u_a12 - u_a1 - 1278 y_a1_proc_2 >= 999998708
 c198: u_a12 - u_a1 - 974 y_a1_proc_0 >= 999998708
 c199: u_a12 - u_a1 - 1234 y_a1_proc_1 >= 999997417
 c200: u_a1 - u_a12 - 854 y_a12_proc_2 >= -1000001291
 c201: u_a1 - u_a12 - 1101 y_a12_proc_0 >= -1000001291
 c202: u_a1 - u_a12 - 411 y_a12_proc_1 >= -1000002582
 c203: u_a13 - u_a1 - 1278 y_a1_proc_2 >= -2582
 c204: u_a13 - u_a1 - 974 y_a1_proc_0 >= -2582
 c205: u_a13 - u_a1 - 1234 y_a1_proc_1 >= -3873
 c206: u_a1 - u_a13 - 920 y_a13_proc_2 >= -1
 c207: u_a1 - u_a13 - 972 y_a13_proc_0 >= -1
 c208: u_a1 - u_a13 - 696 y_a13_proc_1 >= -1292
 c209: u_a14 - u_a1 - 1278 y_a1_proc_2 >= 999997417
 c210: u_a14 - u_a1 - 974 y_a1_proc_0 >= 999999999
 c211: u_a14 - u_a1 - 1234 y_a1_proc_1 >= 999997417
 c212: u_a1 - u_a14 - 515 y_a14_proc_2 >= -1000002582
 c213: u_a1 - u_a14 - 1156 y_a14_proc_0 >= -1000000000
 c214: u_a1 - u_a14 - 469 y_a14_proc_1 >= -1000002582
 c215: u_a3 - u_a2 - 1040 y_a2_proc_2 >= -5164
 c216: u_a2 - u_a3 - 1039 y_a3_proc_2 >= -1
 c217: u_a4 - u_a2 - 1040 y_a2_proc_2 >= -1000002582
 c218: u_a4 - u_a2 - 1244 y_a2_proc_1 >= -1000001291
 c219: u_a2 - u_a4 - 1073 y_a4_proc_2 >= 999997417
 c220: u_a2 - u_a4 - 1052 y_a4_proc_1 >= 999998708
 c221: u_a5 - u_a2 - 1040 y_a2_proc_2 >= -5164
 c222: u_a2 - u_a5 - 599 y_a5_proc_2 >= -1
 c223: u_a6 - u_a2 - 1040 y_a2_proc_2 >= -1000001291
 c224: u_a6 - u_a2 - 1244 y_a2_proc_1 >= -1000001291
 c225: u_a2 - u_a6 - 1128 y_a6_proc_2 >= 999998708
 c226: u_a2 - u_a6 - 1079 y_a6_proc_1 >= 999998708
 c227: u_a7 - u_a2 - 1040 y_a2_proc_2 >= -2582
 c228: u_a7 - u_a2 - 1244 y_a2_proc_1 >= -2582
 c229: u_a2 - u_a7 - 643 y_a7_proc_2 >= -1
 c230: u_a2 - u_a7 - 1018 y_a7_proc_1 >= -1
 c231: u_a8 - u_a2 - 1244 y_a2_proc_1 >= -1000001291
 c232: u_a2 - u_a8 - 1291 y_a8_proc_1 >= 999998708
 c233: u_a9 - u_a2 - 1040 y_a2_proc_2 >= 0
 c234: u_a9 - u_a2 - 1244 y_a2_proc_1 >= 0
 c235: u_a2 - u_a9 - 733 y_a9_proc_2 >= -2583
 c236: u_a2 - u_a9 - 713 y_a9_proc_1 >= -2583
 c237: u_a11 - u_a2 - 1040 y_a2_proc_2 >= -2582
 c238: u_a11 - u_a2 - 1244 y_a2_proc_1 >= 0
 c239: u_a2 - u_a11 - 1023 y_a11_proc_2 >= -2583
 c240: u_a2 - u_a11 - 965 y_a11_proc_1 >= -1
 c241: u_a12 - u_a2 - 1040 y_a2_proc_2 >= -2582
 c242: u_a12 - u_a2 - 1244 y_a2_proc_1 >= -2582
 c243: u_a2 - u_a12 - 854 y_a12_proc_2 >= -1
 c244: u_a2 - u_a12 - 411 y_a12_proc_1 >= -1
 c245: u_a13 - u_a2 - 1040 y_a2_proc_2 >= -1000001291
 c246: u_a13 - u_a2 - 1244 y_a2_proc_1 >= -1000001291
 c247: u_a2 - u_a13 - 920 y_a13_proc_2 >= 999998708
 c248: u_a2 - u_a13 - 696 y_a13_proc_1 >= 999998708
 c249: u_a14 - u_a2 - 1040 y_a2_proc_2 >= -1291
 c250: u_a14 - u_a2 - 1244 y_a2_proc_1 >= 0
 c251: u_a2 - u_a14 - 515 y_a14_proc_2 >= -3874
 c252: u_a2 - u_a14 - 469 y_a14_proc_1 >= -2583
 c253: u_a4 - u_a3 - 1039 y_a3_proc_2 >= -1000002582
 c254: u_a4 - u_a3 - 985 y_a3_proc_0 >= -1000000000
 c255: u_a3 - u_a4 - 1073 y_a4_proc_2 >= 999997417
 c256: u_a3 - u_a4 - 938 y_a4_proc_0 >= 999999999
 c257: u_a5 - u_a3 - 1039 y_a3_proc_2 >= -2582
 c258: u_a5 - u_a3 - 985 y_a3_proc_0 >= 0
 c259: u_a3 - u_a5 - 599 y_a5_proc_2 >= -2583
 c260: u_a3 - u_a5 - 317 y_a5_proc_0 >= -1
 c261: u_a6 - u_a3 - 1039 y_a3_proc_2 >= -1000001291
 c262: u_a6 - u_a3 - 985 y_a3_proc_0 >= -1000001291
 c263: u_a3 - u_a6 - 1128 y_a6_proc_2 >= 999998708
 c264: u_a3 - u_a6 - 1124 y_a6_proc_0 >= 999998708
 c265: u_a7 - u_a3 - 1039 y_a3_proc_2 >= -2582
 c266: u_a3 - u_a7 - 643 y_a7_proc_2 >= -1
 c267: u_a8 - u_a3 - 985 y_a3_proc_0 >= -999999999
 c268: u_a3 - u_a8 - 615 y_a8_proc_0 >= 999999998
 c269: u_a9 - u_a3 - 1039 y_a3_proc_2 >= -2582
 c270: u_a3 - u_a9 - 733 y_a9_proc_2 >= -1
 c271: u_a10 - u_a3 - 985 y_a3_proc_0 >= 0
 c272: u_a3 - u_a10 - 617 y_a10_proc_0 >= -1
 c273: u_a11 - u_a3 - 1039 y_a3_proc_2 >= -5164
 c274: u_a3 - u_a11 - 1023 y_a11_proc_2 >= -1
 c275: u_a12 - u_a3 - 1039 y_a3_proc_2 >= 0
 c276: u_a12 - u_a3 - 985 y_a3_proc_0 >= 0
 c277: u_a3 - u_a12 - 854 y_a12_proc_2 >= -2583
 c278: u_a3 - u_a12 - 1101 y_a12_proc_0 >= -2583
 c279: u_a13 - u_a3 - 1039 y_a3_proc_2 >= -1000001291
 c280: u_a13 - u_a3 - 985 y_a3_proc_0 >= -1000001291
 c281: u_a3 - u_a13 - 920 y_a13_proc_2 >= 999998708
 c282: u_a3 - u_a13 - 972 y_a13_proc_0 >= 999998708
 c283: u_a14 - u_a3 - 1039 y_a3_proc_2 >= -2582
 c284: u_a14 - u_a3 - 985 y_a3_proc_0 >= 0
 c285: u_a3 - u_a14 - 515 y_a14_proc_2 >= -2583
 c286: u_a3 - u_a14 - 1156 y_a14_proc_0 >= -1
 c287: u_a5 - u_a4 - 1073 y_a4_proc_2 >= 999997417
 c288: u_a5 - u_a4 - 938 y_a4_proc_0 >= 999999999
 c289: u_a4 - u_a5 - 599 y_a5_proc_2 >= -1000002582
 c290: u_a4 - u_a5 - 317 y_a5_proc_0 >= -1000000000
 c291: u_a6 - u_a4 - 1073 y_a4_proc_2 >= -2583
 c292: u_a6 - u_a4 - 938 y_a4_proc_0 >= -2583
 c293: u_a6 - u_a4 - 1052 y_a4_proc_1 >= -3874
 c294: u_a4 - u_a6 - 1128 y_a6_proc_2 >= 0
 c295: u_a4 - u_a6 - 1124 y_a6_proc_0 >= 0
 c296: u_a4 - u_a6 - 1079 y_a6_proc_1 >= -1291
 c297: u_a7 - u_a4 - 1073 y_a4_proc_2 >= 999998708
 c298: u_a7 - u_a4 - 1052 y_a4_proc_1 >= 999997417
 c299: u_a4 - u_a7 - 643 y_a7_proc_2 >= -1000001291
 c300: u_a4 - u_a7 - 1018 y_a7_proc_1 >= -1000002582
 c301: u_a8 - u_a4 - 938 y_a4_proc_0 >= 0
 c302: u_a8 - u_a4 - 1052 y_a4_proc_1 >= -2582
 c303: u_a4 - u_a8 - 615 y_a8_proc_0 >= -1
 c304: u_a4 - u_a8 - 1291 y_a8_proc_1 >= -2583
 c305: u_a9 - u_a4 - 1073 y_a4_proc_2 >= 999998708
 c306: u_a9 - u_a4 - 1052 y_a4_proc_1 >= 999997417
 c307: u_a4 - u_a9 - 733 y_a9_proc_2 >= -1000001291
 c308: u_a4 - u_a9 - 713 y_a9_proc_1 >= -1000002582
 c309: u_a10 - u_a4 - 938 y_a4_proc_0 >= 999999999
 c310: u_a4 - u_a10 - 617 y_a10_proc_0 >= -1000000000
 c311: u_a11 - u_a4 - 1073 y_a4_proc_2 >= 999997417
 c312: u_a11 - u_a4 - 1052 y_a4_proc_1 >= 999998708
 c313: u_a4 - u_a11 - 1023 y_a11_proc_2 >= -1000002582
 c314: u_a4 - u_a11 - 965 y_a11_proc_1 >= -1000001291
 c315: u_a12 - u_a4 - 1073 y_a4_proc_2 >= 999998708
 c316: u_a12 - u_a4 - 938 y_a4_proc_0 >= 999998708
 c317: u_a12 - u_a4 - 1052 y_a4_proc_1 >= 999997417
 c318: u_a4 - u_a12 - 854 y_a12_proc_2 >= -1000001291
 c319: u_a4 - u_a12 - 1101 y_a12_proc_0 >= -1000001291
 c320: u_a4 - u_a12 - 411 y_a12_proc_1 >= -1000002582
 c321: u_a13 - u_a4 - 1073 y_a4_proc_2 >= 0
 c322: u_a13 - u_a4 - 938 y_a4_proc_0 >= 0
 c323: u_a13 - u_a4 - 1052 y_a4_proc_1 >= -1291
 c324: u_a4 - u_a13 - 920 y_a13_proc_2 >= -2583
 c325: u_a4 - u_a13 - 972 y_a13_proc_0 >= -2583
 c326: u_a4 - u_a13 - 696 y_a13_proc_1 >= -3874
 c327: u_a14 - u_a4 - 1073 y_a4_proc_2 >= 999997417
 c328: u_a14 - u_a4 - 938 y_a4_proc_0 >= 999999999
 c329: u_a14 - u_a4 - 1052 y_a4_proc_1 >= 999997417
 c330: u_a4 - u_a14 - 515 y_a14_proc_2 >= -1000002582
 c331: u_a4 - u_a14 - 1156 y_a14_proc_0 >= -1000000000
 c332: u_a4 - u_a14 - 469 y_a14_proc_1 >= -1000002582
 c333: u_a6 - u_a5 - 599 y_a5_proc_2 >= -1000001291
 c334: u_a6 - u_a5 - 317 y_a5_proc_0 >= -1000001291
 c335: u_a5 - u_a6 - 1128 y_a6_proc_2 >= 999998708
 c336: u_a5 - u_a6 - 1124 y_a6_proc_0 >= 999998708
 c337: u_a7 - u_a5 - 599 y_a5_proc_2 >= -2582
 c338: u_a5 - u_a7 - 643 y_a7_proc_2 >= -1
 c339: u_a8 - u_a5 - 317 y_a5_proc_0 >= -1000000000
 c340: u_a5 - u_a8 - 615 y_a8_proc_0 >= 999999999
 c341: u_a9 - u_a5 - 599 y_a5_proc_2 >= -2582
 c342: u_a5 - u_a9 - 733 y_a9_proc_2 >= -1
 c343: u_a10 - u_a5 - 317 y_a5_proc_0 >= 0
 c344: u_a5 - u_a10 - 617 y_a10_proc_0 >= -1
 c345: u_a11 - u_a5 - 599 y_a5_proc_2 >= 0
 c346: u_a5 - u_a11 - 1023 y_a11_proc_2 >= -5165
 c347: u_a12 - u_a5 - 599 y_a5_proc_2 >= -2582
 c348: u_a12 - u_a5 - 317 y_a5_proc_0 >= -2582
 c349: u_a5 - u_a12 - 854 y_a12_proc_2 >= -1
 c350: u_a5 - u_a12 - 1101 y_a12_proc_0 >= -1
 c351: u_a13 - u_a5 - 599 y_a5_proc_2 >= -1000001291
 c352: u_a13 - u_a5 - 317 y_a5_proc_0 >= -1000001291
 c353: u_a5 - u_a13 - 920 y_a13_proc_2 >= 999998708
 c354: u_a5 - u_a13 - 972 y_a13_proc_0 >= 999998708
 c355: u_a14 - u_a5 - 599 y_a5_proc_2 >= -2582
 c356: u_a14 - u_a5 - 317 y_a5_proc_0 >= 0
 c357: u_a5 - u_a14 - 515 y_a14_proc_2 >= -2583
 c358: u_a5 - u_a14 - 1156 y_a14_proc_0 >= -1
 c359: u_a7 - u_a6 - 1128 y_a6_proc_2 >= 999999999
 c360: u_a7 - u_a6 - 1079 y_a6_proc_1 >= 999997417
 c361: u_a6 - u_a7 - 643 y_a7_proc_2 >= -1000000000
 c362: u_a6 - u_a7 - 1018 y_a7_proc_1 >= -1000002582
 c363: u_a8 - u_a6 - 1124 y_a6_proc_0 >= -2582
 c364: u_a8 - u_a6 - 1079 y_a6_proc_1 >= -3873
 c365: u_a6 - u_a8 - 615 y_a8_proc_0 >= -1
 c366: u_a6 - u_a8 - 1291 y_a8_proc_1 >= -1292
 c367: u_a9 - u_a6 - 1128 y_a6_proc_2 >= 999999999
 c368: u_a9 - u_a6 - 1079 y_a6_proc_1 >= 999997417
 c369: u_a6 - u_a9 - 733 y_a9_proc_2 >= -1000000000
 c370: u_a6 - u_a9 - 713 y_a9_proc_1 >= -1000002582
 c371: u_a10 - u_a6 - 1124 y_a6_proc_0 >= 999998708
 c372: u_a6 - u_a10 - 617 y_a10_proc_0 >= -1000001291
 c373: u_a11 - u_a6 - 1128 y_a6_proc_2 >= 999998708
 c374: u_a11 - u_a6 - 1079 y_a6_proc_1 >= 999998708
 c375: u_a6 - u_a11 - 1023 y_a11_proc_2 >= -1000001291
 c376: u_a6 - u_a11 - 965 y_a11_proc_1 >= -1000001291
 c377: u_a12 - u_a6 - 1128 y_a6_proc_2 >= 999999999
 c378: u_a12 - u_a6 - 1124 y_a6_proc_0 >= 999997417
 c379: u_a12 - u_a6 - 1079 y_a6_proc_1 >= 999997417
 c380: u_a6 - u_a12 - 854 y_a12_proc_2 >= -1000000000
 c381: u_a6 - u_a12 - 1101 y_a12_proc_0 >= -1000002582
 c382: u_a6 - u_a12 - 411 y_a12_proc_1 >= -1000002582
 c383: u_a13 - u_a6 - 1128 y_a6_proc_2 >= 0
 c384: u_a13 - u_a6 - 1124 y_a6_proc_0 >= -2582
 c385: u_a13 - u_a6 - 1079 y_a6_proc_1 >= -2582
 c386: u_a6 - u_a13 - 920 y_a13_proc_2 >= -1
 c387: u_a6 - u_a13 - 972 y_a13_proc_0 >= -2583
 c388: u_a6 - u_a13 - 696 y_a13_proc_1 >= -2583
 c389: u_a14 - u_a6 - 1128 y_a6_proc_2 >= 999998708
 c390: u_a14 - u_a6 - 1124 y_a6_proc_0 >= 999998708
 c391: u_a14 - u_a6 - 1079 y_a6_proc_1 >= 999997417
 c392: u_a6 - u_a14 - 515 y_a14_proc_2 >= -1000001291
 c393: u_a6 - u_a14 - 1156 y_a14_proc_0 >= -1000001291
 c394: u_a6 - u_a14 - 469 y_a14_proc_1 >= -1000002582
 c395: u_a8 - u_a7 - 1018 y_a7_proc_1 >= -1000002582
 c396: u_a7 - u_a8 - 1291 y_a8_proc_1 >= 999997417
 c397: u_a9 - u_a7 - 643 y_a7_proc_2 >= -1
 c398: u_a9 - u_a7 - 1018 y_a7_proc_1 >= -2583
 c399: u_a7 - u_a9 - 733 y_a9_proc_2 >= 0
 c400: u_a7 - u_a9 - 713 y_a9_proc_1 >= -2582
 c401: u_a11 - u_a7 - 643 y_a7_proc_2 >= -2583
 c402: u_a11 - u_a7 - 1018 y_a7_proc_1 >= -2583
 c403: u_a7 - u_a11 - 1023 y_a11_proc_2 >= 0
 c404: u_a7 - u_a11 - 965 y_a11_proc_1 >= 0
 c405: u_a12 - u_a7 - 643 y_a7_proc_2 >= 0
 c406: u_a12 - u_a7 - 1018 y_a7_proc_1 >= -2582
 c407: u_a7 - u_a12 - 854 y_a12_proc_2 >= -1
 c408: u_a7 - u_a12 - 411 y_a12_proc_1 >= -2583
 c409: u_a13 - u_a7 - 643 y_a7_proc_2 >= -1000000000
 c410: u_a13 - u_a7 - 1018 y_a7_proc_1 >= -1000002582
 c411: u_a7 - u_a13 - 920 y_a13_proc_2 >= 999999999
 c412: u_a7 - u_a13 - 696 y_a13_proc_1 >= 999997417
 c413: u_a14 - u_a7 - 643 y_a7_proc_2 >= 0
 c414: u_a14 - u_a7 - 1018 y_a7_proc_1 >= -1291
 c415: u_a7 - u_a14 - 515 y_a14_proc_2 >= -2583
 c416: u_a7 - u_a14 - 469 y_a14_proc_1 >= -3874
 c417: u_a9 - u_a8 - 1291 y_a8_proc_1 >= 999997417
 c418: u_a8 - u_a9 - 713 y_a9_proc_1 >= -1000002582
 c419: u_a10 - u_a8 - 615 y_a8_proc_0 >= 999999999
 c420: u_a8 - u_a10 - 617 y_a10_proc_0 >= -1000000000
 c421: u_a11 - u_a8 - 1291 y_a8_proc_1 >= 999998708
 c422: u_a8 - u_a11 - 965 y_a11_proc_1 >= -1000001291
 c423: u_a12 - u_a8 - 615 y_a8_proc_0 >= 999998708
 c424: u_a12 - u_a8 - 1291 y_a8_proc_1 >= 999997417
 c425: u_a8 - u_a12 - 1101 y_a12_proc_0 >= -1000001291
 c426: u_a8 - u_a12 - 411 y_a12_proc_1 >= -1000002582
 c427: u_a13 - u_a8 - 615 y_a8_proc_0 >= -1
 c428: u_a13 - u_a8 - 1291 y_a8_proc_1 >= -1292
 c429: u_a8 - u_a13 - 972 y_a13_proc_0 >= -2582
 c430: u_a8 - u_a13 - 696 y_a13_proc_1 >= -3873
 c431: u_a14 - u_a8 - 615 y_a8_proc_0 >= 999999999
 c432: u_a14 - u_a8 - 1291 y_a8_proc_1 >= 999997417
 c433: u_a8 - u_a14 - 1156 y_a14_proc_0 >= -1000000000
 c434: u_a8 - u_a14 - 469 y_a14_proc_1 >= -1000002582
 c435: u_a11 - u_a9 - 733 y_a9_proc_2 >= -1
 c436: u_a11 - u_a9 - 713 y_a9_proc_1 >= -1
 c437: u_a9 - u_a11 - 1023 y_a11_proc_2 >= -2582
 c438: u_a9 - u_a11 - 965 y_a11_proc_1 >= -2582
 c439: u_a12 - u_a9 - 733 y_a9_proc_2 >= 0
 c440: u_a12 - u_a9 - 713 y_a9_proc_1 >= -2582
 c441: u_a9 - u_a12 - 854 y_a12_proc_2 >= -1
 c442: u_a9 - u_a12 - 411 y_a12_proc_1 >= -2583
 c443: u_a13 - u_a9 - 733 y_a9_proc_2 >= -1000000000
 c444: u_a13 - u_a9 - 713 y_a9_proc_1 >= -1000002582
 c445: u_a9 - u_a13 - 920 y_a13_proc_2 >= 999999999
 c446: u_a9 - u_a13 - 696 y_a13_proc_1 >= 999997417
 c447: u_a14 - u_a9 - 733 y_a9_proc_2 >= -2582
 c448: u_a14 - u_a9 - 713 y_a9_proc_1 >= -3873
 c449: u_a9 - u_a14 - 515 y_a14_proc_2 >= -1
 c450: u_a9 - u_a14 - 469 y_a14_proc_1 >= -1292
 c451: u_a12 - u_a10 - 617 y_a10_proc_0 >= 0
 c452: u_a10 - u_a12 - 1101 y_a12_proc_0 >= -2583
 c453: u_a13 - u_a10 - 617 y_a10_proc_0 >= -1000001291
 c454: u_a10 - u_a13 - 972 y_a13_proc_0 >= 999998708
 c455: u_a14 - u_a10 - 617 y_a10_proc_0 >= 0
 c456: u_a10 - u_a14 - 1156 y_a14_proc_0 >= -1
 c457: u_a12 - u_a11 - 1023 y_a11_proc_2 >= -2582
 c458: u_a12 - u_a11 - 965 y_a11_proc_1 >= -2582
 c459: u_a11 - u_a12 - 854 y_a12_proc_2 >= -1
 c460: u_a11 - u_a12 - 411 y_a12_proc_1 >= -1
 c461: u_a13 - u_a11 - 1023 y_a11_proc_2 >= -1000001291
 c462: u_a13 - u_a11 - 965 y_a11_proc_1 >= -1000001291
 c463: u_a11 - u_a13 - 920 y_a13_proc_2 >= 999998708
 c464: u_a11 - u_a13 - 696 y_a13_proc_1 >= 999998708
 c465: u_a14 - u_a11 - 1023 y_a11_proc_2 >= -1291
 c466: u_a14 - u_a11 - 965 y_a11_proc_1 >= 0
 c467: u_a11 - u_a14 - 515 y_a14_proc_2 >= -3874
 c468: u_a11 - u_a14 - 469 y_a14_proc_1 >= -2583
 c469: u_a13 - u_a12 - 854 y_a12_proc_2 >= -1000000000
 c470: u_a13 - u_a12 - 1101 y_a12_proc_0 >= -1000002582
 c471: u_a13 - u_a12 - 411 y_a12_proc_1 >= -1000002582
 c472: u_a12 - u_a13 - 920 y_a13_proc_2 >= 999999999
 c473: u_a12 - u_a13 - 972 y_a13_proc_0 >= 999997417
 c474: u_a12 - u_a13 - 696 y_a13_proc_1 >= 999997417
 c475: u_a14 - u_a12 - 854 y_a12_proc_2 >= 0
 c476: u_a14 - u_a12 - 1101 y_a12_proc_0 >= 0
 c477: u_a14 - u_a12 - 411 y_a12_proc_1 >= -1291
 c478: u_a12 - u_a14 - 515 y_a14_proc_2 >= -2583
 c479: u_a12 - u_a14 - 1156 y_a14_proc_0 >= -2583
 c480: u_a12 - u_a14 - 469 y_a14_proc_1 >= -3874
 c481: u_a14 - u_a13 - 920 y_a13_proc_2 >= 999998708
 c482: u_a14 - u_a13 - 972 y_a13_proc_0 >= 999998708
 c483: u_a14 - u_a13 - 696 y_a13_proc_1 >= 999997417
 c484: u_a13 - u_a14 - 515 y_a14_proc_2 >= -1000001291
 c485: u_a13 - u_a14 - 1156 y_a14_proc_0 >= -1000001291
 c486: u_a13 - u_a14 - 469 y_a14_proc_1 >= -1000002582

Bounds
End
